% Archivo de datos para el modelo de planificación de producción simple.
Products = { BananaCake, ChocolateCake };
profit = [400, 450]; % in cents

Resources = { Flour, Banana, Sugar, Butter, Cocoa };
capacity = [4000, 6, 2000, 500, 500];

consumption= [| 250, 2, 75, 100, 0,
              | 200, 0, 150, 150, 75 |];
